QPLIB_1157
QCQ
minimize
40 # number of variables
9 # number of constraints
776 # number of quadratic terms in objective
1 1 0.52
2 1 -0.12
3 1 -0.6
4 1 -0.28
5 1 0.48
6 1 0.24
7 1 0.2
8 1 0.28
9 1 -0.16
10 1 -0.64
11 1 0.12
12 1 -0.24
13 1 0.8
14 1 -0.32
15 1 0.24
16 1 -0.56
17 1 -0.24
18 1 0.08
20 1 0.32
21 1 -0.04
22 1 0.16
23 1 -0.52
24 1 0.36
25 1 -0.16
26 1 -0.52
27 1 0.36
28 1 -0.12
29 1 -0.48
30 1 0.2
31 1 0.12
32 1 0.6
33 1 -0.56
34 1 0.12
35 1 -0.04
36 1 -0.52
37 1 -0.6
38 1 -0.28
39 1 0.2
40 1 -0.64
2 2 0.84
3 2 0.16
4 2 -0.28
5 2 -0.36
6 2 0.28
7 2 0.08
8 2 -0.12
9 2 -0.2
10 2 -0.08
11 2 -0.56
12 2 0.04
13 2 -0.32
14 2 -0.04
15 2 -0.08
16 2 -0.28
17 2 -0.08
19 2 -0.28
20 2 -0.04
21 2 -0.4
22 2 -0.36
23 2 -0.36
24 2 -0.24
25 2 -0.16
26 2 -0.32
27 2 -0.56
28 2 0.24
29 2 -0.16
30 2 0.16
31 2 -0.28
32 2 -0.2
33 2 0.12
34 2 -0.6
35 2 0.08
36 2 -0.08
38 2 0.2
39 2 0.08
40 2 -0.04
3 3 0.42
4 3 -0.16
5 3 0.2
6 3 -0.24
7 3 -0.12
8 3 0.16
9 3 0.04
10 3 -0.32
11 3 0.04
13 3 -0.48
14 3 0.04
15 3 -0.48
16 3 -0.6
17 3 0.04
18 3 -0.04
19 3 0.76
20 3 0.48
21 3 0.44
22 3 0.24
23 3 0.24
25 3 0.04
26 3 -0.68
27 3 -0.12
28 3 -0.04
29 3 -0.36
30 3 -0.08
31 3 -0.8
32 3 -0.2
33 3 0.04
35 3 -0.08
36 3 0.28
37 3 0.4
38 3 -0.4
39 3 -0.28
40 3 -0.48
4 4 -0.34
5 4 0.52
6 4 0.32
7 4 -0.44
8 4 -0.04
9 4 0.32
10 4 -0.28
11 4 -0.44
12 4 -0.48
13 4 0.64
14 4 0.4
15 4 0.68
16 4 0.08
17 4 -0.56
18 4 0.36
19 4 -0.2
20 4 0.4
21 4 -0.84
22 4 -0.24
23 4 -0.64
24 4 0.56
25 4 -0.36
26 4 0.04
27 4 -0.08
28 4 -0.04
29 4 -0.12
30 4 0.4
31 4 0.68
32 4 0.04
33 4 -0.56
34 4 0.16
35 4 -0.2
36 4 -0.36
37 4 -0.16
38 4 -0.4
39 4 0.36
40 4 -0.4
5 5 0.44
6 5 0.36
7 5 -0.12
8 5 -0.32
9 5 -0.44
10 5 -0.24
11 5 -0.52
12 5 0.24
13 5 -0.48
14 5 0.64
15 5 0.08
16 5 -0.12
17 5 0.08
18 5 -0.36
19 5 -0.36
20 5 -0.56
21 5 -0.2
22 5 0.04
23 5 0.08
24 5 -0.72
25 5 0.24
26 5 0.36
27 5 -0.24
28 5 -0.36
29 5 -0.12
30 5 0.24
31 5 0.28
32 5 -0.76
33 5 0.16
34 5 -0.6
35 5 0.08
36 5 -0.32
37 5 0.08
38 5 0.48
39 5 -0.16
40 5 0.2
6 6 0.38
7 6 -0.04
8 6 -0.24
9 6 -0.52
10 6 0.36
11 6 0.04
12 6 -0.32
14 6 0.08
15 6 -0.2
16 6 -0.24
17 6 -0.16
18 6 -0.2
19 6 -0.52
20 6 0.32
21 6 0.28
22 6 -0.24
23 6 -0.36
24 6 -0.76
25 6 -0.16
26 6 -0.16
27 6 -0.2
28 6 -0.28
29 6 0.36
30 6 -0.24
31 6 0.12
32 6 0.12
33 6 0.04
34 6 -0.12
35 6 -0.08
36 6 -0.52
38 6 0.12
39 6 -0.24
40 6 -0.36
7 7 0.66
8 7 -0.32
9 7 -0.16
10 7 -0.44
11 7 -0.04
12 7 -0.04
13 7 -0.6
15 7 -0.24
16 7 0.04
17 7 -0.08
18 7 0.12
19 7 -0.72
20 7 0.08
21 7 -0.28
22 7 -0.32
23 7 0.2
24 7 0.12
25 7 -0.24
27 7 0.08
29 7 -0.04
30 7 -0.04
31 7 -0.4
32 7 -0.84
33 7 -0.32
34 7 -0.12
35 7 0.04
36 7 -0.12
37 7 -0.04
38 7 -0.08
39 7 0.24
40 7 -0.2
8 8 0.84
9 8 -0.16
10 8 -0.68
11 8 -0.32
12 8 0.16
13 8 0.36
14 8 -0.32
16 8 -0.48
17 8 -0.6
18 8 -0.08
19 8 -0.08
20 8 -0.2
21 8 -0.28
22 8 -0.48
23 8 0.08
24 8 -0.76
26 8 -0.32
27 8 -0.28
29 8 0.24
30 8 -0.28
32 8 -0.08
33 8 0.12
34 8 -0.12
35 8 -0.12
36 8 0.28
37 8 0.04
38 8 -0.36
39 8 -0.32
40 8 0.24
9 9 0.52
10 9 0.4
11 9 -0.16
12 9 -0.4
13 9 -0.04
14 9 0.24
16 9 0.4
17 9 -0.4
18 9 -0.16
19 9 0.24
20 9 0.08
21 9 -0.84
22 9 0.16
23 9 0.4
24 9 -0.48
25 9 0.04
26 9 -0.04
27 9 -0.56
28 9 0.12
29 9 0.04
30 9 -0.56
31 9 -0.32
32 9 -0.24
33 9 0.08
34 9 0.08
35 9 0.2
36 9 -0.04
37 9 0.36
38 9 -0.36
39 9 -0.12
40 9 -0.4
10 10 0.54
11 10 -0.56
12 10 -0.16
13 10 -0.44
14 10 -0.24
15 10 -0.48
16 10 0.4
17 10 -0.04
18 10 0.08
19 10 -0.12
20 10 -0.12
21 10 -0.08
23 10 -0.76
24 10 0.2
25 10 0.2
26 10 -0.2
27 10 -0.04
28 10 -0.04
29 10 -0.04
30 10 0.16
31 10 -0.04
32 10 -0.24
33 10 -0.36
34 10 -0.32
35 10 -0.4
36 10 0.28
37 10 -0.56
38 10 0.08
39 10 -0.16
40 10 -0.28
11 11 0.94
12 11 -0.16
13 11 0.24
14 11 -0.08
15 11 0.08
16 11 0.44
17 11 -0.4
18 11 -0.28
19 11 -0.84
20 11 -0.28
21 11 -0.24
22 11 -0.48
24 11 -0.36
25 11 -0.6
26 11 -0.24
27 11 -0.28
28 11 -0.16
29 11 0.4
30 11 -0.48
31 11 -0.04
32 11 -0.44
34 11 -0.48
35 11 -0.08
36 11 -0.32
37 11 0.24
38 11 0.12
39 11 -0.2
40 11 0.16
12 12 0.34
13 12 -0.2
14 12 0.04
16 12 -0.16
17 12 0.16
18 12 -0.4
19 12 -0.68
20 12 -0.12
21 12 -0.56
22 12 -0.08
23 12 -0.12
24 12 0.08
25 12 0.04
26 12 -0.12
27 12 0.32
28 12 0.32
29 12 -0.36
30 12 0.08
31 12 -0.12
32 12 0.2
33 12 0.24
34 12 0.24
35 12 -0.24
36 12 -0.28
37 12 -0.24
38 12 0.04
39 12 -0.68
40 12 -0.08
13 13 0.4
14 13 -0.08
15 13 -0.28
16 13 0.32
17 13 0.56
18 13 -0.04
19 13 -0.36
20 13 -0.76
21 13 0.24
22 13 -0.2
23 13 0.08
24 13 -0.2
25 13 0.08
26 13 -0.16
27 13 0.32
29 13 -0.24
30 13 -0.32
31 13 -0.76
32 13 -0.32
33 13 0.44
34 13 0.44
35 13 -0.08
36 13 0.44
37 13 -0.76
38 13 0.08
39 13 -0.68
40 13 -0.68
14 14 0.8
15 14 -0.12
16 14 -0.44
17 14 -0.04
18 14 0.04
19 14 -0.04
20 14 0.36
22 14 -0.12
23 14 -0.08
24 14 -0.12
25 14 0.04
26 14 -0.68
27 14 -0.08
28 14 0.16
29 14 -0.4
30 14 -0.4
32 14 -0.12
33 14 0.12
34 14 -0.4
35 14 0.16
36 14 -0.24
37 14 -0.08
38 14 -0.68
39 14 0.04
40 14 0.2
15 15 0.82
16 15 -0.68
17 15 -0.72
18 15 0.32
20 15 0.16
21 15 0.72
22 15 0.2
23 15 -0.04
24 15 -0.12
25 15 0.04
26 15 0.08
27 15 -0.44
28 15 -0.56
29 15 -0.24
30 15 -0.56
31 15 -0.12
32 15 0.04
33 15 -0.36
34 15 -0.32
35 15 -0.64
36 15 0.28
38 15 0.08
39 15 0.04
40 15 -0.32
16 16 0.54
17 16 -0.04
18 16 0.12
19 16 0.28
20 16 0.16
21 16 -0.12
22 16 -0.44
23 16 -0.08
24 16 0.48
25 16 -0.76
26 16 -0.48
27 16 -0.6
28 16 0.04
29 16 -0.32
30 16 -0.32
31 16 0.04
32 16 0.48
33 16 -0.32
35 16 -0.08
36 16 -0.08
37 16 -0.2
38 16 -0.84
39 16 0.04
40 16 0.04
17 17 0.54
18 17 -0.72
19 17 -0.16
20 17 0.56
21 17 -0.32
22 17 -0.24
23 17 -0.32
24 17 -0.44
25 17 -0.36
26 17 0.12
27 17 -0.24
28 17 0.28
29 17 0.24
30 17 -0.28
31 17 0.16
32 17 0.04
33 17 -0.44
34 17 -0.44
35 17 -0.36
36 17 -0.24
37 17 0.48
38 17 0.44
39 17 -0.24
40 17 0.24
18 18 0.68
19 18 -0.28
20 18 0.24
21 18 0.08
22 18 -0.4
23 18 -0.44
24 18 -0.24
25 18 -0.32
26 18 -0.32
27 18 -0.2
28 18 -0.56
29 18 0.04
32 18 -0.08
33 18 -0.48
34 18 -0.48
35 18 -0.04
36 18 0.16
37 18 0.4
38 18 -0.12
40 18 -0.04
19 19 0.42
21 19 0.24
22 19 0.04
23 19 0.08
24 19 -0.48
25 19 -0.08
26 19 0.72
27 19 0.28
28 19 -0.16
29 19 -0.12
30 19 -0.2
31 19 0.04
32 19 0.04
33 19 -0.64
34 19 -1.16
35 19 -0.36
36 19 -0.36
37 19 -0.4
38 19 -0.04
39 19 0.32
40 19 -0.12
20 20 0.08
21 20 -0.44
22 20 -0.2
23 20 -0.52
25 20 0.24
26 20 -0.52
27 20 -0.12
29 20 -0.2
30 20 -0.24
31 20 -0.84
32 20 -0.24
33 20 0.16
34 20 0.68
35 20 0.04
36 20 -0.12
37 20 0.16
38 20 0.28
39 20 -0.72
21 21 0.44
22 21 0.08
23 21 0.2
24 21 0.2
25 21 -0.36
26 21 -0.24
27 21 -0.6
28 21 -0.24
29 21 0.04
30 21 0.08
31 21 -0.08
32 21 -0.16
33 21 -0.24
35 21 0.24
36 21 -0.04
37 21 0.36
38 21 0.08
39 21 -0.08
40 21 0.48
22 22 0.4
23 22 0.08
24 22 0.04
25 22 -0.48
26 22 -0.24
27 22 -1.08
29 22 0.16
30 22 0.56
31 22 -0.2
32 22 -0.4
34 22 0.8
35 22 -0.08
36 22 -0.48
37 22 -0.2
38 22 -0.32
40 22 0.04
23 23 0.76
24 23 0.16
25 23 0.24
26 23 0.12
27 23 0.2
28 23 -0.16
29 23 -0.2
30 23 -0.16
31 23 0.08
32 23 -0.24
33 23 -0.32
34 23 0.2
35 23 -0.24
36 23 -0.12
37 23 -0.32
38 23 0.36
39 23 0.04
40 23 -0.2
24 24 0.28
25 24 0.24
26 24 -0.16
27 24 -0.52
28 24 -0.16
29 24 0.52
30 24 -0.16
31 24 -0.28
32 24 -0.2
33 24 0.08
34 24 -0.12
35 24 0.24
37 24 0.72
38 24 0.24
39 24 -0.52
40 24 0.72
25 25 0.74
26 25 -0.44
27 25 -0.64
28 25 -0.36
29 25 -0.44
30 25 -0.04
31 25 0.16
32 25 -0.12
33 25 -0.04
34 25 0.04
35 25 0.68
36 25 0.16
38 25 -0.16
39 25 -0.4
40 25 -0.04
26 26 0.52
28 26 -0.12
29 26 0.16
30 26 -0.08
31 26 -0.12
32 26 0.12
34 26 1.0
35 26 0.08
36 26 -0.04
37 26 0.44
38 26 -0.16
39 26 -0.72
40 26 0.08
27 27 0.56
28 27 -0.28
29 27 0.12
30 27 0.4
31 27 0.44
32 27 -0.16
33 27 -0.6
34 27 0.16
35 27 0.52
36 27 -0.2
37 27 0.8
38 27 -0.44
39 27 -0.28
40 27 0.68
28 28 0.5
29 28 -0.52
30 28 0.24
31 28 0.08
32 28 0.08
33 28 -0.08
34 28 -0.32
35 28 -0.24
36 28 -0.16
37 28 -0.04
38 28 -0.04
39 28 -0.24
40 28 -0.04
29 29 0.8
30 29 0.04
31 29 -0.56
32 29 -0.08
33 29 0.12
34 29 0.4
35 29 0.24
36 29 -0.64
37 29 -0.36
38 29 -0.56
39 29 -0.16
40 29 -0.56
30 30 0.6
31 30 0.16
32 30 -0.2
33 30 0.28
34 30 -0.68
35 30 -0.36
36 30 0.12
37 30 -0.6
38 30 0.04
39 30 -0.24
40 30 -0.16
31 31 0.24
32 31 -0.12
33 31 0.44
34 31 0.48
35 31 -0.4
36 31 0.12
37 31 -0.4
39 31 -0.52
40 31 -0.72
32 32 0.58
33 32 0.64
34 32 -0.2
35 32 0.08
36 32 0.36
37 32 -0.28
38 32 -0.12
39 32 -0.24
40 32 0.32
33 33 0.72
34 33 -0.44
35 33 0.32
36 33 -0.16
37 33 -0.4
38 33 -0.52
39 33 0.16
40 33 -0.08
34 34 0.12
35 34 -0.44
37 34 -0.12
38 34 0.04
39 34 -0.08
35 35 0.94
36 35 0.12
37 35 -0.68
38 35 -0.36
39 35 0.48
40 35 -0.48
36 36 0.72
37 36 0.36
38 36 -0.12
39 36 -0.56
40 36 -0.16
37 37 0.44
38 37 -0.28
39 37 -0.24
40 37 -0.08
38 38 0.8
39 38 0.08
40 38 -0.48
39 39 0.68
40 39 -0.08
40 40 0.02
-0.34 # default value for linear coefficients in objective
39 # number of non-default linear coefficients in objective
1 0.44
2 0.51
3 -0.23
4 0.54
5 0.58
6 0.56
7 -0.84
8 -0.19
9 0.07
10 -0.55
11 -0.43
12 0.71
13 -0.12
14 0.75
15 -0.78
16 -0.68
17 0.77
18 0.74
19 0.65
20 -0.02
21 -0.58
22 0.43
23 -0.87
24 -0.74
25 -0.58
26 -0.97
27 0.34
28 0.11
29 0.08
30 0.07
31 -0.53
32 0.55
33 0.81
34 -0.38
35 0.07
36 0.56
37 0.59
38 0.04
39 -0.67
0.0 # objective constant
778 # number of quadratic terms in all constraints
9 9 1 0.38
9 9 1 0.12
9 9 1 -0.28
9 9 1 0.08
9 9 1 -0.28
9 9 1 -0.12
9 9 1 -0.04
9 9 1 -0.04
9 9 1 -0.12
9 9 1 -0.16
9 9 1 0.08
9 9 1 0.2
9 9 1 -0.16
9 9 1 -0.2
9 9 1 -0.12
9 9 1 -0.16
9 9 1 0.08
9 9 1 -0.16
9 9 1 -0.2
9 9 1 -0.04
9 9 1 -0.44
9 9 1 0.36
9 9 1 0.24
9 9 1 -0.12
9 9 1 0.2
9 9 1 0.24
9 9 1 -0.36
9 9 1 0.04
9 9 1 0.12
9 9 1 0.6
9 9 1 -0.04
9 9 1 0.08
9 9 1 -0.2
9 9 1 -0.2
9 9 1 -0.56
9 9 1 0.24
9 9 1 -0.12
9 9 1 0.24
9 9 1 0.12
9 9 1 -0.04
9 9 1 0.68
9 9 1 0.16
9 9 1 0.24
9 9 1 0.04
9 9 1 0.24
9 9 1 -0.12
9 9 1 -0.12
9 9 1 0.04
9 9 1 -0.4
9 9 1 0.28
9 9 1 0.28
9 9 1 -0.24
9 9 1 -0.4
9 9 1 0.16
9 9 1 0.08
9 9 1 0.04
9 9 1 -0.56
9 9 1 0.44
9 9 1 -0.2
9 9 1 -0.76
9 9 1 0.28
9 9 1 -0.44
9 9 1 0.24
9 9 1 0.08
9 9 1 0.04
9 9 1 -0.28
9 9 1 -0.08
9 9 1 0.04
9 9 1 0.4
9 9 1 -0.56
9 9 1 0.16
9 9 1 0.16
9 9 1 0.36
9 9 1 -0.12
9 9 1 -0.16
9 9 1 -0.56
9 9 1 -0.2
9 9 1 0.68
9 9 1 -0.12
9 9 1 -0.08
9 9 1 -0.12
9 9 1 0.2
9 9 1 -0.16
9 9 1 -0.16
9 9 1 0.08
9 9 1 -0.08
9 9 1 0.2
9 9 1 0.04
9 9 1 0.04
9 9 1 -0.36
9 9 1 -0.12
9 9 1 -0.04
9 9 1 0.16
9 9 1 0.4
9 9 1 -0.12
9 9 1 -0.48
9 9 1 0.24
9 9 1 0.12
9 9 1 0.4
9 9 1 -0.04
9 9 1 -0.04
9 9 1 -0.52
9 9 1 -0.44
9 9 1 0.16
9 9 1 -0.28
9 9 1 -0.12
9 9 1 -0.32
9 9 1 -0.16
9 9 1 0.24
9 9 1 -0.2
9 9 1 0.12
9 9 1 0.16
9 9 1 -0.08
9 9 1 0.9
9 9 1 -0.2
9 9 1 -0.12
9 9 1 0.08
9 9 1 0.32
9 9 1 -0.16
9 9 1 -0.52
9 9 1 -0.64
9 9 1 -0.68
9 9 1 0.08
9 9 1 -0.12
9 9 1 -0.04
9 9 1 0.04
9 9 1 -0.28
9 9 1 0.08
9 9 1 -0.2
9 9 1 0.28
9 9 1 0.56
9 9 1 0.08
9 9 1 -0.12
9 9 1 -0.32
9 9 1 0.2
9 9 1 -0.56
9 9 1 0.12
9 9 1 0.08
9 9 1 -0.24
9 9 1 -0.32
9 9 1 -0.24
9 9 1 -0.24
9 9 1 0.04
9 9 1 -0.4
9 9 1 -0.44
9 9 1 -0.08
9 9 1 -0.28
9 9 1 0.86
9 9 1 -0.28
9 9 1 -0.16
9 9 1 -0.16
9 9 1 -0.08
9 9 1 0.16
9 9 1 0.24
9 9 1 0.12
9 9 1 -0.28
9 9 1 0.48
9 9 1 -0.32
9 9 1 -0.4
9 9 1 -0.04
9 9 1 0.12
9 9 1 -0.44
9 9 1 0.04
9 9 1 -0.28
9 9 1 0.08
9 9 1 -0.28
9 9 1 -0.44
9 9 1 -0.28
9 9 1 -0.2
9 9 1 0.28
9 9 1 -0.16
9 9 1 0.04
9 9 1 -0.44
9 9 1 -0.24
9 9 1 -0.4
9 9 1 -0.36
9 9 1 -0.12
9 9 1 -0.12
9 9 1 -0.08
9 9 1 -0.08
9 9 1 0.16
9 9 1 0.5
9 9 1 -0.4
9 9 1 0.12
9 9 1 -0.12
9 9 1 0.76
9 9 1 0.12
9 9 1 -0.64
9 9 1 0.24
9 9 1 -0.32
9 9 1 0.08
9 9 1 -0.16
9 9 1 0.16
9 9 1 -0.08
9 9 1 -0.24
9 9 1 -0.04
9 9 1 -0.48
9 9 1 -0.28
9 9 1 -0.08
9 9 1 -0.6
9 9 1 0.2
9 9 1 0.6
9 9 1 -0.24
9 9 1 -0.12
9 9 1 -0.08
9 9 1 0.36
9 9 1 0.24
9 9 1 -0.68
9 9 1 -0.32
9 9 1 0.08
9 9 1 -0.2
9 9 1 -0.68
9 9 1 0.48
9 9 1 0.08
9 9 1 0.6
9 9 1 0.44
9 9 1 0.38
9 9 1 -0.4
9 9 1 0.16
9 9 1 0.04
9 9 1 -0.2
9 9 1 -0.4
9 9 1 -0.16
9 9 1 0.56
9 9 1 0.4
9 9 1 -0.28
9 9 1 -0.04
9 9 1 -0.2
9 9 1 0.04
9 9 1 -0.16
9 9 1 -0.36
9 9 1 -0.72
9 9 1 0.16
9 9 1 0.12
9 9 1 0.64
9 9 1 0.08
9 9 1 0.04
9 9 1 0.28
9 9 1 -0.32
9 9 1 0.24
9 9 1 -0.28
9 9 1 -0.08
9 9 1 -0.48
9 9 1 0.12
9 9 1 -0.28
9 9 1 -0.08
9 9 1 0.36
9 9 1 -0.2
9 9 1 0.24
9 9 1 -0.16
9 9 1 -0.2
9 9 1 -0.2
9 9 1 0.36
9 9 1 0.16
9 9 1 -0.64
9 9 1 -0.08
9 9 1 -0.24
9 9 1 0.32
9 9 1 0.24
9 9 1 -0.4
9 9 1 -0.2
9 9 1 0.08
9 9 1 -0.16
9 9 1 -0.36
9 9 1 0.28
9 9 1 0.48
9 9 1 -0.2
9 9 1 -0.28
9 9 1 0.2
9 9 1 0.04
9 9 1 0.04
9 9 1 -0.16
9 9 1 -0.12
9 9 1 0.24
9 9 1 0.36
9 9 1 -0.24
9 9 1 0.04
9 9 1 -0.2
9 9 1 0.16
9 9 1 0.76
9 9 1 -0.2
9 9 1 -0.16
9 9 1 0.32
9 9 1 -0.24
9 9 1 0.08
9 9 1 0.08
9 9 1 0.16
9 9 1 0.48
9 9 1 -0.08
9 9 1 0.4
9 9 1 -0.08
9 9 1 0.36
9 9 1 -0.52
9 9 1 -0.04
9 9 1 0.08
9 9 1 0.16
9 9 1 -0.16
9 9 1 0.12
9 9 1 -0.48
9 9 1 -0.2
9 9 1 0.04
9 9 1 0.04
9 9 1 -0.2
9 9 1 -0.32
9 9 1 -0.28
9 9 1 0.08
9 9 1 -0.28
9 9 1 -0.04
9 9 1 0.22
9 9 1 0.08
9 9 1 0.24
9 9 1 -0.4
9 9 1 -0.04
9 9 1 0.28
9 9 1 -0.28
9 9 1 0.12
9 9 1 -0.04
9 9 1 0.64
9 9 1 0.16
9 9 1 -0.2
9 9 1 0.28
9 9 1 -0.16
9 9 1 0.4
9 9 1 -0.16
9 9 1 -0.04
9 9 1 0.76
9 9 1 0.2
9 9 1 -0.4
9 9 1 0.48
9 9 1 -0.76
9 9 1 0.24
9 9 1 -0.2
9 9 1 -0.56
9 9 1 0.44
9 9 1 -0.08
9 9 1 -0.6
9 9 1 0.24
9 9 1 -0.08
9 9 1 -0.24
9 9 1 0.7
9 9 1 0.32
9 9 1 -0.16
9 9 1 0.28
9 9 1 -0.24
9 9 1 -0.16
9 9 1 -0.36
9 9 1 -0.24
9 9 1 -0.2
9 9 1 0.24
9 9 1 0.16
9 9 1 -0.36
9 9 1 -0.24
9 9 1 0.24
9 9 1 -0.44
9 9 1 0.16
9 9 1 -0.28
9 9 1 -0.2
9 9 1 0.04
9 9 1 0.04
9 9 1 -0.16
9 9 1 -0.28
9 9 1 0.08
9 9 1 -0.04
9 9 1 -0.04
9 9 1 0.2
9 9 1 -0.12
9 9 1 -0.16
9 9 1 -0.04
9 9 1 0.42
9 9 1 -0.08
9 9 1 -0.32
9 9 1 -0.28
9 9 1 -0.32
9 9 1 -0.16
9 9 1 -0.04
9 9 1 0.4
9 9 1 -0.12
9 9 1 -0.08
9 9 1 -0.24
9 9 1 -0.08
9 9 1 0.44
9 9 1 0.32
9 9 1 0.16
9 9 1 0.28
9 9 1 0.28
9 9 1 0.36
9 9 1 0.04
9 9 1 -0.08
9 9 1 -0.08
9 9 1 -0.16
9 9 1 -0.64
9 9 1 -0.24
9 9 1 -0.28
9 9 1 -0.2
9 9 1 0.16
9 9 1 0.86
9 9 1 -0.16
9 9 1 0.24
9 9 1 -0.28
9 9 1 -0.08
9 9 1 0.28
9 9 1 0.32
9 9 1 0.08
9 9 1 0.16
9 9 1 -0.04
9 9 1 -0.12
9 9 1 -0.08
9 9 1 0.4
9 9 1 0.08
9 9 1 0.04
9 9 1 0.36
9 9 1 -0.4
9 9 1 -0.12
9 9 1 0.08
9 9 1 -0.48
9 9 1 0.28
9 9 1 0.32
9 9 1 -0.16
9 9 1 0.08
9 9 1 -0.2
9 9 1 -0.64
9 9 1 0.66
9 9 1 -0.16
9 9 1 -0.24
9 9 1 -0.12
9 9 1 0.08
9 9 1 0.28
9 9 1 -0.4
9 9 1 -0.08
9 9 1 0.04
9 9 1 -0.28
9 9 1 0.32
9 9 1 -0.32
9 9 1 -0.04
9 9 1 0.32
9 9 1 0.2
9 9 1 -0.44
9 9 1 -0.2
9 9 1 0.04
9 9 1 0.32
9 9 1 -0.48
9 9 1 -0.2
9 9 1 0.16
9 9 1 0.08
9 9 1 -0.44
9 9 1 -0.16
9 9 1 0.16
9 9 1 -0.64
9 9 1 0.6
9 9 1 -0.04
9 9 1 0.2
9 9 1 -0.28
9 9 1 -0.2
9 9 1 -0.04
9 9 1 0.08
9 9 1 -0.24
9 9 1 0.04
9 9 1 0.36
9 9 1 -0.28
9 9 1 -0.32
9 9 1 -0.6
9 9 1 -0.2
9 9 1 0.4
9 9 1 -0.6
9 9 1 -0.4
9 9 1 0.16
9 9 1 0.08
9 9 1 0.2
9 9 1 0.12
9 9 1 0.64
9 9 1 0.36
9 9 1 0.72
9 9 1 0.36
9 9 1 0.28
9 9 1 0.56
9 9 1 0.44
9 9 1 -0.6
9 9 1 -0.28
9 9 1 0.04
9 9 1 -0.52
9 9 1 -0.12
9 9 1 0.08
9 9 1 -0.68
9 9 1 0.2
9 9 1 0.36
9 9 1 0.24
9 9 1 0.04
9 9 1 -0.08
9 9 1 -0.12
9 9 1 -0.28
9 9 1 0.44
9 9 1 0.36
9 9 1 -0.32
9 9 1 0.16
9 9 1 0.04
9 9 1 0.06
9 9 1 -0.16
9 9 1 -0.24
9 9 1 -0.52
9 9 1 0.32
9 9 1 -0.28
9 9 1 0.04
9 9 1 0.68
9 9 1 0.04
9 9 1 -0.44
9 9 1 0.04
9 9 1 -0.72
9 9 1 0.24
9 9 1 -0.12
9 9 1 0.08
9 9 1 -0.04
9 9 1 0.16
9 9 1 -0.28
9 9 1 -0.2
9 9 1 0.12
9 9 1 0.56
9 9 1 -0.08
9 9 1 0.46
9 9 1 -0.04
9 9 1 -0.4
9 9 1 0.52
9 9 1 -0.12
9 9 1 -0.28
9 9 1 -0.4
9 9 1 -0.28
9 9 1 -0.2
9 9 1 0.08
9 9 1 -0.24
9 9 1 -0.12
9 9 1 0.24
9 9 1 0.08
9 9 1 -0.08
9 9 1 0.12
9 9 1 -0.08
9 9 1 -0.2
9 9 1 0.12
9 9 1 -0.24
9 9 1 0.12
9 9 1 -0.52
9 9 1 0.04
9 9 1 -0.2
9 9 1 0.04
9 9 1 0.36
9 9 1 -0.44
9 9 1 -0.64
9 9 1 -0.36
9 9 1 -0.28
9 9 1 -0.04
9 9 1 -0.6
9 9 1 0.2
9 9 1 0.44
9 9 1 0.72
9 9 1 -0.04
9 9 1 0.2
9 9 1 -0.16
9 9 1 0.16
9 9 1 -0.64
9 9 1 -0.04
9 9 1 -0.12
9 9 1 0.36
9 9 1 0.24
9 9 1 -0.2
9 9 1 0.28
9 9 1 -0.16
9 9 1 -0.24
9 9 1 0.48
9 9 1 -0.36
9 9 1 -0.52
9 9 1 -0.32
9 9 1 0.12
9 9 1 -0.32
9 9 1 0.24
9 9 1 0.12
9 9 1 0.08
9 9 1 0.36
9 9 1 -0.16
9 9 1 -0.28
9 9 1 -0.16
9 9 1 0.12
9 9 1 0.5
9 9 1 -0.04
9 9 1 0.28
9 9 1 -0.52
9 9 1 0.12
9 9 1 0.12
9 9 1 -0.12
9 9 1 -0.16
9 9 1 0.08
9 9 1 -0.24
9 9 1 -0.56
9 9 1 0.16
9 9 1 -0.28
9 9 1 -0.12
9 9 1 -0.08
9 9 1 -0.08
9 9 1 -0.2
9 9 1 0.36
9 9 1 1.0
9 9 1 -0.44
9 9 1 -0.16
9 9 1 -0.44
9 9 1 -0.48
9 9 1 0.04
9 9 1 0.36
9 9 1 -0.4
9 9 1 0.04
9 9 1 -0.2
9 9 1 -0.04
9 9 1 0.32
9 9 1 -0.16
9 9 1 -0.16
9 9 1 0.12
9 9 1 -0.12
9 9 1 -0.52
9 9 1 0.76
9 9 1 -0.16
9 9 1 -0.28
9 9 1 -0.32
9 9 1 0.2
9 9 1 0.16
9 9 1 -0.16
9 9 1 -0.12
9 9 1 0.28
9 9 1 -0.28
9 9 1 -0.16
9 9 1 0.12
9 9 1 -0.28
9 9 1 -0.12
9 9 1 -0.56
9 9 1 0.2
9 9 1 -0.4
9 9 1 0.18
9 9 1 0.44
9 9 1 0.92
9 9 1 -0.68
9 9 1 0.72
9 9 1 -0.04
9 9 1 -0.28
9 9 1 -0.04
9 9 1 -0.72
9 9 1 -0.76
9 9 1 -0.04
9 9 1 -0.28
9 9 1 -0.52
9 9 1 0.04
9 9 1 -0.36
9 9 1 0.6
9 9 1 0.08
9 9 1 1.0
9 9 1 0.04
9 9 1 0.2
9 9 1 -0.48
9 9 1 0.16
9 9 1 -0.16
9 9 1 -0.04
9 9 1 0.36
9 9 1 -0.16
9 9 1 -0.4
9 9 1 -0.08
9 9 1 0.04
9 9 1 0.08
9 9 1 0.36
9 9 1 -0.32
9 9 1 -0.2
9 9 1 0.5
9 9 1 -0.56
9 9 1 -0.48
9 9 1 -0.4
9 9 1 -0.08
9 9 1 0.4
9 9 1 0.12
9 9 1 -0.24
9 9 1 -0.08
9 9 1 0.16
9 9 1 0.2
9 9 1 0.04
9 9 1 -0.44
9 9 1 0.08
9 9 1 0.76
9 9 1 -0.16
9 9 1 0.2
9 9 1 -0.4
9 9 1 -0.16
9 9 1 -0.44
9 9 1 -0.16
9 9 1 0.12
9 9 1 -0.72
9 9 1 -0.68
9 9 1 0.28
9 9 1 0.08
9 9 1 0.2
9 9 1 0.48
9 9 1 -0.48
9 9 1 0.24
9 9 1 -0.6
9 9 1 -0.48
9 9 1 0.4
9 9 1 -0.36
9 9 1 -0.44
9 9 1 0.2
9 9 1 0.48
9 9 1 0.56
9 9 1 0.16
9 9 1 0.64
9 9 1 0.2
9 9 1 -0.04
9 9 1 0.2
9 9 1 -0.32
9 9 1 0.12
9 9 1 -0.04
9 9 1 -0.28
9 9 1 0.36
9 9 1 -0.2
9 9 1 -0.16
9 9 1 0.42
9 9 1 0.08
9 9 1 -0.32
9 9 1 -0.52
9 9 1 -0.16
9 9 1 -0.32
9 9 1 -0.2
9 9 1 0.2
9 9 1 0.04
9 9 1 0.4
9 9 1 0.2
9 9 1 0.72
9 9 1 -0.04
9 9 1 -0.4
9 9 1 -0.2
9 9 1 -0.16
9 9 1 0.12
9 9 1 -0.04
9 9 1 -0.32
9 9 1 -0.2
9 9 1 0.56
9 9 1 -0.12
9 9 1 0.48
9 9 1 -0.76
9 9 1 -0.68
9 9 1 0.56
9 9 1 -0.04
9 9 1 0.6
9 9 1 0.48
9 9 1 1.06
9 9 1 0.04
9 9 1 0.08
9 9 1 -0.2
9 9 1 0.04
9 9 1 -0.04
9 9 1 0.08
9 9 1 0.86
9 9 1 0.2
9 9 1 0.6
9 9 1 -0.44
9 9 1 -0.32
9 9 1 -0.16
9 9 1 -0.16
9 9 1 0.8
9 9 1 -0.24
9 9 1 0.36
9 9 1 0.24
9 9 1 -0.24
9 9 1 0.08
9 9 1 0.38
9 9 1 -0.08
9 9 1 -0.2
9 9 1 -0.28
9 9 1 0.12
9 9 1 0.7
9 9 1 -0.72
9 9 1 -0.32
9 9 1 -0.24
9 9 1 0.86
9 9 1 -0.08
9 9 1 -0.08
9 9 1 0.88
9 9 1 -0.24
9 9 1 0.84
359 # number of linear terms in all constraints
1 1 0.32
1 2 0.07
1 3 0.83
1 4 0.67
1 5 -0.92
1 6 0.21
1 7 -0.01
1 8 0.43
1 9 -0.93
1 10 0.79
1 11 -0.29
1 12 -0.84
1 13 0.64
1 14 0.92
1 15 -0.75
1 16 0.56
1 17 -0.5
1 18 -0.15
1 19 0.71
1 20 0.89
1 21 0.07
1 22 -0.79
1 23 0.11
1 24 -0.1
1 25 -0.53
1 26 0.34
1 27 0.14
1 28 0.93
1 29 0.29
1 30 -0.34
1 31 -0.94
1 32 -0.04
1 33 -0.86
1 34 0.87
1 35 -0.15
1 36 -0.46
1 37 0.25
1 38 0.4
1 39 0.43
1 40 -0.76
2 1 0.55
2 2 -0.69
2 3 -0.14
2 4 -0.09
2 5 0.02
2 6 -0.69
2 7 0.16
2 8 0.75
2 9 0.87
2 10 0.51
2 11 -0.69
2 12 0.3
2 13 0.68
2 14 0.99
2 15 0.55
2 16 0.47
2 17 -0.45
2 18 -0.72
2 19 -0.18
2 20 0.17
2 21 0.34
2 22 -0.77
2 23 0.97
2 24 -0.56
2 25 -0.52
2 26 0.77
2 27 -0.15
2 28 -0.8
2 29 -0.84
2 30 0.55
2 31 -0.76
2 32 0.47
2 33 0.57
2 34 -0.65
2 35 -0.8
2 36 0.09
2 37 0.25
2 38 0.22
2 39 0.3
2 40 -0.46
3 1 0.7
3 2 -0.63
3 3 -0.42
3 4 -0.2
3 5 0.03
3 6 0.41
3 7 0.13
3 8 0.59
3 9 0.27
3 10 0.76
3 11 -0.33
3 12 -0.56
3 13 0.88
3 14 0.41
3 15 -0.31
3 16 -0.41
3 17 0.93
3 18 0.33
3 19 0.72
3 20 -0.97
3 21 -0.43
3 22 0.09
3 23 0.41
3 24 -0.13
3 25 0.38
3 26 -0.52
3 27 0.53
3 28 0.62
3 29 0.66
3 30 -0.37
3 31 -0.02
3 32 -0.39
3 33 0.41
3 34 -0.42
3 35 0.24
3 36 0.62
3 37 0.32
3 38 0.19
3 39 0.44
3 40 -0.86
4 1 -0.92
4 2 -0.94
4 3 0.62
4 4 0.28
4 5 0.09
4 6 0.25
4 7 0.49
4 8 0.23
4 9 -0.95
4 10 -0.76
4 11 -0.06
4 12 -0.58
4 13 0.06
4 14 -0.76
4 15 -0.73
4 16 0.48
4 17 0.61
4 18 -0.4
4 19 -0.04
4 20 -0.97
4 21 0.66
4 22 -0.7
4 23 -0.34
4 24 -0.61
4 25 -0.83
4 26 -0.2
4 27 -0.64
4 28 0.3
4 29 -0.11
4 30 -0.08
4 31 0.07
4 32 -0.72
4 33 0.85
4 34 -0.64
4 35 0.83
4 36 -0.55
4 37 -0.97
4 38 -0.99
4 39 0.96
4 40 0.47
5 1 -0.25
5 2 -0.29
5 3 -0.65
5 4 0.72
5 5 0.61
5 6 0.32
5 7 0.01
5 8 0.25
5 9 0.16
5 10 0.55
5 11 0.75
5 12 0.22
5 13 -0.77
5 14 -0.78
5 15 0.52
5 16 -0.68
5 17 -0.83
5 18 0.65
5 19 0.28
5 20 0.57
5 21 0.83
5 22 0.95
5 23 0.28
5 24 0.15
5 25 -0.84
5 26 -0.62
5 27 0.5
5 28 0.67
5 29 0.43
5 30 -0.05
5 31 0.18
5 32 -0.76
5 33 0.49
5 34 0.57
5 35 0.71
5 36 0.26
5 37 -0.07
5 38 -0.17
5 39 0.97
5 40 0.91
6 1 0.79
6 2 0.2
6 3 0.04
6 4 0.39
6 5 -0.51
6 6 -0.11
6 7 -0.26
6 8 -0.62
6 9 0.96
6 10 0.92
6 11 -0.16
6 12 0.73
6 13 0.91
6 14 -0.38
6 15 -0.89
6 16 -0.51
6 17 0.38
6 18 -0.23
6 19 -0.63
6 20 -0.11
6 21 0.27
6 22 0.34
6 23 -0.26
6 24 -0.55
6 25 -0.57
6 26 -0.42
6 27 -0.12
6 28 -0.25
6 29 0.64
6 30 0.63
6 31 -0.53
6 32 -0.91
6 33 -0.03
6 34 0.44
6 35 -0.37
6 36 0.54
6 37 -0.27
6 38 -0.96
6 39 0.57
6 40 0.38
7 2 0.02
7 3 -0.77
7 4 -0.18
7 5 0.22
7 6 -0.41
7 7 -0.99
7 8 0.44
7 9 -0.28
7 10 0.22
7 11 0.25
7 12 0.72
7 13 -0.65
7 14 -0.5
7 15 0.85
7 16 0.44
7 17 -0.09
7 18 -0.12
7 19 0.72
7 20 0.99
7 21 0.79
7 22 -0.18
7 23 -0.88
7 24 -0.01
7 25 -0.68
7 26 -0.16
7 27 0.58
7 28 -0.75
7 29 0.77
7 30 -0.56
7 31 0.03
7 32 0.71
7 33 -0.57
7 34 -0.24
7 35 -0.52
7 36 0.61
7 37 0.12
7 38 0.07
7 39 -0.43
7 40 -0.99
8 1 0.35
8 2 0.72
8 3 0.53
8 4 -0.55
8 5 0.27
8 6 -0.45
8 7 0.77
8 8 -0.51
8 9 -0.52
8 10 0.94
8 11 -0.95
8 12 0.42
8 13 -0.71
8 14 0.11
8 15 0.58
8 16 -0.45
8 17 0.04
8 18 0.88
8 19 -0.87
8 20 -0.99
8 21 0.4
8 22 0.41
8 23 -0.53
8 24 -0.37
8 25 -0.42
8 26 -0.06
8 27 0.53
8 28 0.54
8 29 -0.55
8 30 0.58
8 31 0.17
8 32 -0.81
8 33 -0.29
8 34 -0.91
8 35 0.85
8 36 -0.57
8 37 -0.15
8 38 -0.26
8 39 0.08
8 40 -0.33
9 1 -0.69
9 2 -0.21
9 3 -0.91
9 4 -0.55
9 5 0.49
9 6 0.63
9 7 -0.46
9 8 -0.37
9 9 -0.35
9 10 0.52
9 11 0.41
9 12 -0.71
9 13 -0.53
9 14 0.14
9 15 -0.02
9 16 -0.15
9 17 -0.53
9 18 0.27
9 19 0.37
9 20 0.87
9 21 0.08
9 22 0.7
9 23 -0.14
9 24 -0.14
9 25 -0.46
9 26 -0.37
9 27 -0.63
9 28 -0.37
9 29 0.46
9 30 -0.38
9 31 0.57
9 32 -0.99
9 33 -0.81
9 34 0.86
9 35 -1.0
9 36 0.12
9 37 0.1
9 38 0.09
9 39 0.19
9 40 -0.78
1.79769313486232E+308 # value for infinity
-1.79769313486232E+308 # default left-hand-side value
8 # number of non-default left-hand-sides
1 0.56
2 -0.16
3 -0.4
4 -0.25
5 0.45
6 0.3
7 0.99
8 0.77
16.22 # default right-hand-side value
8 # number of non-default right-hand-sides
1 0.56
2 -0.16
3 -0.4
4 -0.25
5 0.45
6 0.3
7 0.99
8 0.77
0.0 # default variable lower bound value
0 # number of non-default variable lower bounds
1.0 # default variable upper bound value
0 # number of non-default variable upper bounds
0.0 # default variable primal value in starting point
0 # number of non-default variable primal values in starting point
0.0 # default constraint dual value in starting point
0 # number of non-default constraint dual values in starting point
0.0 # default variable bound dual value in starting point
0 # number of non-default variable bound dual values in starting point
0 # number of non-default variable names
0 # number of non-default constraint names
